p cnf 1185 1337
c ind 771 772 773 786 793 819 880 881 894 901 0
c ind 905 907 910 926 928 931 943 944 963 965 0
c ind 969 980 981 985 986 987 991 993 764 879 0
c ind 794 806 765 766 878 769 770 877 1138 1139 0
c ind 1137 1136 1134 1135 1133 1128 1170 1152 1161 1175 0
c ind 1132 1156 1166 1183 1131 1130 1129 1169 1151 1160 0
c ind 1174 1155 1165 1182 1168 1150 1159 1173 1154 1164 0
c ind 1181 1126 1167 1149 1158 1172 1153 1163 1180 1127 0
c ind 1144 1148 1178 1125 1120 1124 1123 1122 1121 1146 0
c ind 1176 1147 1177 1118 1119 1157 1171 1162 1179 1111 0
c ind 1112 1117 1116 1115 1114 1113 767 768 1109 1110 0
c ind 1108 1107 1105 1106 1145 1104 1099 1103 1102 1101 0
c ind 1100 1141 1097 1098 1096 1091 1095 1094 1093 1092 0
c ind 1142 1089 1090 1082 1083 1088 1087 1086 1085 1084 0
c ind 1080 1081 1079 1078 1076 1077 1075 1070 1074 1073 0
c ind 1072 1071 1143 1068 1069 1067 1140 1062 1066 1065 0
c ind 1064 1063 1060 1061 1053 1054 1059 1058 1057 1056 0
c ind 1055 1051 1052 1050 1049 1047 1048 1046 1041 1045 0
c ind 1044 1043 1042 1039 1040 1038 1033 1037 1036 1035 0
c ind 1034 1031 1032 1024 1025 1030 1029 1028 1027 1026 0
c ind 1022 1023 1021 1020 1018 1019 1017 1012 1016 1015 0
c ind 1014 1013 1010 1011 1009 1004 1008 1007 1006 1005 0
c ind 1002 1003 995 996 1001 1000 999 998 997 975 0
c ind 976 974 973 972 994 984 982 983 971 970 0
c ind 992 979 968 990 988 989 977 978 967 966 0
c ind 959 964 962 960 961 958 951 950 957 956 0
c ind 955 954 953 952 949 948 947 946 945 763 0
c ind 938 776 937 935 936 934 933 939 940 932 0
c ind 930 941 929 942 927 925 923 924 922 921 0
c ind 920 919 918 917 884 916 914 915 913 912 0
c ind 911 909 908 906 904 902 903 900 895 899 0
c ind 896 897 891 898 893 889 890 892 888 883 0
c ind 887 885 886 882 876 869 861 875 874 873 0
c ind 872 855 854 853 871 852 870 851 850 849 0
c ind 868 867 866 865 864 863 862 860 859 858 0
c ind 857 856 848 841 833 847 846 845 844 827 0
c ind 826 825 843 824 842 823 822 821 840 839 0
c ind 838 837 836 835 834 832 831 830 829 828 0
c ind 820 818 816 817 807 808 815 814 813 812 0
c ind 811 809 810 803 802 804 805 801 800 799 0
c ind 798 796 797 795 792 791 787 788 789 790 0
c ind 783 785 782 781 784 775 780 774 779 777 0
c ind 778 1 0
c ret 618 619 620 621 622 623 624 625 626 627 0
c ret 628 629 630 631 632 633 634 635 636 637 0
c ret 638 639 640 641 642 643 644 645 646 647 0
c ret 648 649 650 651 652 653 654 655 656 657 0
c ret 658 659 660 661 662 663 664 665 666 667 0
c ret 668 669 670 671 672 673 674 675 676 677 0
c ret 678 679 680 681 682 683 684 685 686 687 0
c ret 688 689 690 691 692 693 694 695 696 697 0
c ret 698 699 700 701 702 703 704 705 706 707 0
c ret 708 709 710 711 712 713 714 715 716 717 0
c ret 718 719 720 721 722 723 724 725 726 727 0
c ret 313 319 320 321 322 323 324 728 325 729 0
c ret 326 327 328 730 329 731 330 331 332 333 0
c ret 334 335 336 337 338 339 340 341 342 732 0
c ret 343 733 344 734 345 735 346 347 348 349 0
c ret 350 351 352 353 354 355 314 736 356 357 0
c ret 358 359 360 737 738 361 362 739 363 740 0
c ret 364 365 366 367 368 369 370 741 371 372 0
c ret 373 374 375 376 742 377 743 378 379 380 0
c ret 381 744 745 382 383 384 385 386 387 388 0
c ret 389 390 391 392 393 394 395 396 746 315 0
c ret 397 747 398 748 749 399 400 401 402 403 0
c ret 404 405 406 407 408 409 750 410 411 412 0
c ret 413 414 415 751 416 752 417 418 753 754 0
c ret 419 420 421 422 423 424 425 426 755 756 0
c ret 427 428 429 757 430 431 432 433 434 435 0
c ret 436 316 437 438 439 440 441 442 443 444 0
c ret 758 445 446 447 759 448 760 449 450 761 0
c ret 762 451 452 453 454 455 456 457 458 459 0
c ret 460 461 462 463 464 465 466 467 468 469 0
c ret 470 471 472 473 474 475 476 477 478 479 0
c ret 480 481 482 483 484 485 486 487 488 489 0
c ret 490 491 492 493 494 495 496 497 498 499 0
c ret 500 501 502 503 504 505 506 507 317 508 0
c ret 509 510 511 512 513 514 515 516 517 518 0
c ret 519 520 521 522 523 524 525 526 527 528 0
c ret 529 530 531 532 533 534 535 536 537 538 0
c ret 539 540 541 542 543 544 545 546 318 547 0
c ret 548 549 550 551 552 553 554 555 556 557 0
c ret 558 559 560 561 562 563 564 565 566 567 0
c ret 568 569 570 571 572 573 574 575 576 577 0
c ret 578 579 580 581 582 583 584 585 586 587 0
c ret 588 589 590 591 592 593 594 595 596 597 0
c ret 598 599 600 601 602 603 604 605 606 607 0
c ret 608 609 610 611 612 613 614 615 616 617 0
2 133 305 -306 0
2 3 305 -306 0
-2 306 0
-2 -305 0
-2 -3 -133 0
3 -4 -59 -123 0
3 4 59 113 0
3 4 59 -123 0
3 -4 -59 113 0
-3 4 -59 0
-3 -4 59 0
-3 -113 123 0
4 -5 -16 0
4 -5 53 0
-4 5 0
-4 16 -53 0
5 -6 13 0
5 -6 8 0
5 -6 -14 0
-5 6 0
-5 -8 -13 14 0
6 -7 -995 0
-6 995 0
-6 7 0
7 -1053 -1082 -1111 0
-7 1053 0
-7 1082 0
-7 1111 0
8 -9 0
8 -10 -11 0
-8 9 11 0
-8 9 10 0
9 1024 0
9 -1025 -1031 0
9 1025 -1032 0
-9 -1024 1025 1032 0
-9 -1024 -1025 1031 0
10 1033 1040 0
10 -1033 1039 0
-10 -1033 -1039 0
-10 1033 -1040 0
11 12 0
11 -1041 1047 0
11 1041 1048 0
-11 -12 -1041 -1047 0
-11 -12 1041 -1048 0
9 -10 12 0
-9 -12 0
10 -12 0
13 1024 0
13 -1025 1031 0
13 1025 1032 0
-13 -1024 1025 -1032 0
-13 -1024 -1025 -1031 0
9 14 15 0
-9 -14 0
-14 -15 0
12 15 0
15 1041 -1048 0
15 -1041 -1047 0
-12 -15 1041 1048 0
-12 -15 -1041 1047 0
16 -17 -52 -1161 0
16 17 -18 -52 0
-16 52 0
-16 -17 1161 0
-16 17 18 0
17 990 -992 0
-17 -990 0
-17 992 0
18 -19 -1160 0
18 19 -20 0
-18 -19 1160 0
-18 19 20 0
19 962 -964 0
-19 -962 0
-19 964 0
20 21 44 51 0
20 21 44 -47 0
-20 -21 0
-20 -44 0
-20 47 -51 0
21 -42 763 -938 0
21 22 763 938 0
-21 -763 0
-21 42 -938 0
-21 -22 938 0
22 -23 -1157 0
-22 1157 0
-22 23 0
23 -24 38 0
-23 24 0
-23 -38 0
24 -31 32 0
24 25 32 -828 0
-24 -32 0
-24 -25 31 0
-24 31 828 0
25 26 0
25 29 -827 0
25 29 833 0
-25 -26 -29 0
-25 -26 827 -833 0
26 -27 28 -821 -828 0
-26 27 0
-26 -28 0
-26 821 0
-26 828 0
27 822 823 824 0
-27 -822 0
-27 -824 0
-27 -823 0
28 825 -826 0
-28 -825 0
-28 826 0
29 30 827 833 -834 0
-29 -827 0
-29 -30 0
-29 834 0
-29 -833 0
30 841 842 0
-30 -841 0
-30 -842 0
27 31 -821 0
28 31 -821 -827 0
-31 821 0
-27 -31 827 0
-27 -28 -31 0
32 34 37 0
32 34 -36 0
32 33 34 0
-32 -34 0
-32 -33 36 -37 0
33 850 851 852 0
-33 -850 0
-33 -852 0
-33 -851 0
33 34 -849 0
34 35 -849 -855 0
-34 849 0
-33 -34 855 0
-33 -34 -35 0
35 853 -854 0
-35 -853 0
-35 854 0
36 861 862 0
36 861 869 870 0
-36 -861 0
-36 -862 -869 0
-36 -862 -870 0
35 37 -849 855 -856 0
-37 856 0
-35 -37 0
-37 849 0
-37 -855 0
38 -39 -795 0
38 -41 -795 0
38 -40 -795 0
-38 795 0
-38 39 40 41 0
39 -796 797 798 0
-39 796 0
-39 -798 0
-39 -797 0
40 801 804 805 0
-40 -801 0
-40 -805 0
-40 -804 0
41 -801 802 803 0
-41 801 0
-41 -803 0
-41 -802 0
42 -43 1158 0
22 42 43 0
-42 -43 -1158 0
-22 -42 43 0
43 904 -906 0
-43 -904 0
-43 906 0
44 -45 -46 -948 0
44 -45 -46 -949 0
-44 46 0
-44 45 0
-44 948 949 0
45 951 952 953 954 0
-45 -954 0
-45 -953 0
-45 -951 0
-45 -952 0
46 -945 -946 -947 950 0
-46 947 0
-46 -950 0
-46 945 0
-46 946 0
42 47 -48 0
-42 -47 0
-47 48 0
48 49 50 0
-48 -49 0
-48 -50 0
49 925 -927 0
-49 -925 0
-49 927 0
50 917 918 919 0
-50 -917 0
-50 -919 0
-50 -918 0
49 51 -763 0
51 -763 1159 0
-51 763 0
-49 -51 -1159 0
52 -959 966 0
-52 959 0
-52 -966 0
53 -54 -959 0
18 20 53 0
18 53 -959 0
20 53 -54 0
-20 -53 959 0
-18 -53 54 0
54 56 966 0
54 -55 56 0
54 56 959 0
-54 -56 0
-54 55 -959 -966 0
55 -967 968 0
-55 967 0
-55 -968 0
56 57 -58 0
-56 -57 0
-56 58 0
57 970 -971 -972 973 0
-57 -970 0
-57 -973 0
-57 972 0
-57 971 0
58 -959 -966 -967 968 0
-58 967 0
-58 -968 0
-58 959 0
-58 966 0
59 -60 -68 0
59 -60 107 0
-59 60 0
-59 68 -107 0
60 63 -66 0
60 61 62 -66 0
-60 66 0
-60 -62 -63 0
-60 -61 -63 0
61 545 0
61 -546 -552 0
61 546 -553 0
-61 -545 546 553 0
-61 -545 -546 552 0
-61 62 0
62 -554 560 0
62 554 561 0
61 -62 -554 -560 0
61 -62 554 -561 0
-61 63 -64 0
63 -64 -65 0
-63 64 0
61 -63 65 0
64 545 0
64 -546 552 0
64 546 553 0
-64 -545 546 -553 0
-64 -545 -546 -552 0
-61 65 0
65 554 -561 0
65 -554 -560 0
61 -65 -554 560 0
61 -65 554 561 0
66 -67 -574 0
-66 574 0
-66 67 0
67 -603 -632 -661 -690 0
-67 690 0
-67 603 0
-67 661 0
-67 632 0
68 -69 -106 -740 0
68 69 -70 -106 0
-68 106 0
-68 -69 740 0
-68 69 70 0
69 540 -542 0
-69 -540 0
-69 542 0
70 -71 -739 0
70 71 -72 0
-70 -71 739 0
-70 71 72 0
71 512 -514 0
-71 -512 0
-71 514 0
72 73 98 105 0
72 73 98 -101 0
-72 -73 0
-72 -98 0
-72 101 -105 0
73 -96 313 -488 0
73 74 313 488 0
-73 -313 0
-73 96 -488 0
-73 -74 488 0
74 -75 -736 0
-74 736 0
-74 75 0
75 76 -80 0
-75 -76 0
-75 80 0
76 -77 -345 0
76 -79 -345 0
76 -78 -345 0
-76 345 0
-76 77 78 79 0
77 -346 347 348 0
-77 346 0
-77 -348 0
-77 -347 0
78 351 354 355 0
-78 -351 0
-78 -355 0
-78 -354 0
79 -351 352 353 0
-79 351 0
-79 -353 0
-79 -352 0
80 81 -88 0
80 81 91 -378 0
-80 -81 0
-80 88 -91 0
-80 88 378 0
81 -82 85 0
81 85 399 0
-81 -85 0
-81 82 -399 0
82 -84 402 405 0
82 -83 -84 402 0
-82 -402 0
-82 84 0
-82 83 -405 0
83 403 -404 0
-83 -403 0
-83 404 0
84 400 401 0
-84 -400 0
-84 -401 0
83 -84 85 86 -87 0
84 -85 0
-85 -86 0
-83 -85 0
-85 87 0
86 411 412 0
86 411 419 420 0
-86 -411 0
-86 -412 -419 0
-86 -412 -420 0
87 -399 402 405 -406 0
-87 406 0
-87 -405 0
-87 399 0
-87 -402 0
88 89 -371 0
88 90 -371 -377 0
-88 371 0
-88 -89 377 0
-88 -89 -90 0
89 372 373 374 0
-89 -372 0
-89 -374 0
-89 -373 0
90 375 -376 0
-90 -375 0
-90 376 0
91 92 95 0
-91 -92 0
-91 -95 0
92 -93 -94 -391 0
92 -93 -94 -392 0
-92 94 0
-92 93 0
-92 391 392 0
-89 90 93 -371 -378 0
89 -93 0
-90 -93 0
-93 371 0
-93 378 0
94 377 383 -384 0
-94 384 0
-94 -383 0
-94 -377 0
-93 95 377 -383 0
93 -95 0
-95 383 0
-95 -377 0
96 -97 737 0
74 96 97 0
-96 -97 -737 0
-74 -96 97 0
97 454 -456 0
-97 -454 0
-97 456 0
98 -99 -100 -498 0
98 -99 -100 -499 0
-98 100 0
-98 99 0
-98 498 499 0
99 501 502 503 504 0
-99 -504 0
-99 -503 0
-99 -501 0
-99 -502 0
100 -495 -496 -497 500 0
-100 497 0
-100 -500 0
-100 495 0
-100 496 0
96 101 -102 0
-96 -101 0
-101 102 0
102 103 104 0
-102 -103 0
-102 -104 0
103 467 468 469 0
-103 -467 0
-103 -469 0
-103 -468 0
104 475 -477 0
-104 -475 0
-104 477 0
104 105 -313 0
105 -313 738 0
-105 313 0
-104 -105 -738 0
106 -509 516 0
-106 509 0
-106 -516 0
107 -108 -509 0
70 72 107 0
70 107 -509 0
72 107 -108 0
-72 -107 509 0
-70 -107 108 0
108 110 516 0
108 -109 110 0
108 110 509 0
-108 -110 0
-108 109 -509 -516 0
109 -517 518 0
-109 517 0
-109 -518 0
110 111 -112 0
-110 -111 0
-110 112 0
111 520 -521 -522 523 0
-111 -520 0
-111 -523 0
-111 522 0
-111 521 0
112 -509 -516 -517 518 0
-112 517 0
-112 -518 0
-112 509 0
-112 516 0
-5 113 -114 0
-5 113 122 0
5 -113 0
-113 114 -122 0
17 -52 114 -115 0
-17 -52 114 -1183 0
52 -114 0
17 -114 115 0
-17 -114 1183 0
-19 115 -1182 0
19 115 -116 0
-19 -115 1182 0
19 -115 116 0
44 116 117 121 0
44 116 117 -120 0
-44 -116 0
-116 -117 0
-116 120 -121 0
117 -119 763 -938 0
117 118 763 938 0
-117 -763 0
-117 119 -938 0
-117 -118 938 0
-23 118 -1179 0
-118 1179 0
23 -118 0
-43 119 1180 0
43 118 119 0
-43 -119 -1180 0
43 -118 -119 0
-48 119 120 0
48 -120 0
-119 -120 0
49 121 -763 0
121 -763 1181 0
-121 763 0
-49 -121 -1181 0
-54 116 122 0
115 122 -959 0
-54 122 -959 0
115 116 122 0
54 -115 -122 0
-116 -122 959 0
-60 123 -124 0
-60 123 132 0
60 -123 0
-123 124 -132 0
69 -106 124 -125 0
-69 -106 124 -762 0
106 -124 0
69 -124 125 0
-69 -124 762 0
-71 125 -761 0
71 125 -126 0
-71 -125 761 0
71 -125 126 0
98 126 127 131 0
98 126 127 -130 0
-98 -126 0
-126 -127 0
-126 130 -131 0
127 -129 313 -488 0
127 128 313 488 0
-127 -313 0
-127 129 -488 0
-127 -128 488 0
-75 128 -758 0
-128 758 0
75 -128 0
-97 129 759 0
97 128 129 0
-97 -129 -759 0
97 -128 -129 0
-102 129 130 0
102 -130 0
-129 -130 0
104 131 -313 0
131 -313 760 0
-131 313 0
-104 -131 -760 0
-108 126 132 0
125 132 -509 0
-108 132 -509 0
125 126 132 0
108 -125 -132 0
-126 -132 509 0
133 134 143 -152 -284 0
133 -134 -143 -152 -284 0
-133 284 0
-133 -134 143 0
-133 152 0
-133 134 -143 0
-5 134 -135 0
-5 134 142 0
5 -134 0
-134 135 -142 0
17 -52 135 -136 0
-17 -52 135 -1156 0
52 -135 0
17 -135 136 0
-17 -135 1156 0
-19 136 -1155 0
19 136 -137 0
-19 -136 1155 0
19 -136 137 0
44 137 138 141 0
44 137 138 -140 0
-44 -137 0
-137 -138 0
-137 140 -141 0
138 -139 763 -938 0
23 138 763 938 0
-138 -763 0
-138 139 -938 0
-23 -138 938 0
-43 139 1153 0
23 43 139 0
-43 -139 -1153 0
-23 43 -139 0
-48 139 140 0
48 -140 0
-139 -140 0
49 141 -763 0
141 -763 1154 0
-141 763 0
-49 -141 -1154 0
-54 137 142 0
136 142 -959 0
-54 142 -959 0
136 137 142 0
54 -136 -142 0
-137 -142 959 0
-60 143 -144 0
-60 143 151 0
60 -143 0
-143 144 -151 0
69 -106 144 -145 0
-69 -106 144 -735 0
106 -144 0
69 -144 145 0
-69 -144 735 0
-71 145 -734 0
71 145 -146 0
-71 -145 734 0
71 -145 146 0
98 146 147 150 0
98 146 147 -149 0
-98 -146 0
-146 -147 0
-146 149 -150 0
147 -148 313 -488 0
75 147 313 488 0
-147 -313 0
-147 148 -488 0
-75 -147 488 0
-97 148 732 0
75 97 148 0
-97 -148 -732 0
-75 97 -148 0
-102 148 149 0
102 -149 0
-148 -149 0
104 150 -313 0
150 -313 733 0
-150 313 0
-104 -150 -733 0
-108 146 151 0
145 151 -509 0
-108 151 -509 0
145 146 151 0
108 -145 -151 0
-146 -151 509 0
152 153 166 -179 -245 0
152 -153 -166 -179 -245 0
-152 245 0
-152 -153 166 0
-152 179 0
-152 153 -166 0
-5 153 -154 0
-5 153 -164 0
-5 153 -163 0
5 -153 0
-153 154 163 164 0
154 157 -158 0
-48 154 155 -158 0
-154 158 0
-154 -155 -157 0
48 -154 -157 0
-43 155 1163 0
43 155 156 0
-43 -155 -1163 0
43 -155 -156 0
-23 156 -1162 0
-156 1162 0
23 -156 0
49 157 -763 0
157 -763 1164 0
-157 763 0
-49 -157 -1164 0
158 159 -160 0
-158 -159 0
-158 160 0
-155 159 763 -938 0
156 159 763 938 0
-159 -763 0
155 -159 -938 0
-156 -159 938 0
44 160 161 0
-44 -160 0
-160 -161 0
-19 161 -959 0
161 -162 -959 0
-161 959 0
19 -161 162 0
-17 56 162 966 0
-55 56 162 -966 0
-56 -162 0
55 -162 -966 0
17 -162 966 0
-17 -52 163 -1166 0
-163 1166 0
17 -163 0
52 -163 0
-19 164 -165 -1165 0
-164 1165 0
19 -164 0
-164 165 0
162 165 -959 0
-165 959 0
-162 -165 0
-60 166 -167 0
-60 166 -177 0
-60 166 -176 0
60 -166 0
-166 167 176 177 0
167 170 -171 0
-102 167 168 -171 0
-167 171 0
-167 -168 -170 0
102 -167 -170 0
-97 168 742 0
97 168 169 0
-97 -168 -742 0
97 -168 -169 0
-75 169 -741 0
-169 741 0
75 -169 0
104 170 -313 0
170 -313 743 0
-170 313 0
-104 -170 -743 0
171 172 -173 0
-171 -172 0
-171 173 0
-168 172 313 -488 0
169 172 313 488 0
-172 -313 0
168 -172 -488 0
-169 -172 488 0
98 173 174 0
-98 -173 0
-173 -174 0
-71 174 -509 0
174 -175 -509 0
-174 509 0
71 -174 175 0
-69 110 175 516 0
-109 110 175 -516 0
-110 -175 0
109 -175 -516 0
69 -175 516 0
-69 -106 176 -745 0
-176 745 0
69 -176 0
106 -176 0
-71 177 -178 -744 0
-177 744 0
71 -177 0
-177 178 0
175 178 -509 0
-178 509 0
-175 -178 0
179 180 195 -218 232 0
179 -180 -195 -218 232 0
-179 -232 0
-179 -180 195 0
-179 218 0
-179 180 -195 0
180 -185 313 0
103 180 181 -185 0
-180 185 0
-180 -181 -313 0
-103 -180 -313 0
181 182 -432 0
-80 181 -184 432 0
-181 -182 -432 0
80 -181 432 0
-181 184 432 0
-80 182 -183 0
80 -182 0
-182 183 0
183 -719 -721 0
76 183 719 0
183 -719 -725 0
-76 -183 719 0
-183 -719 721 725 0
184 -719 721 727 0
-184 719 0
-184 -727 0
-184 -721 0
181 185 187 -191 0
185 -186 187 -191 0
-185 191 0
-185 -187 0
-181 -185 186 0
186 488 489 0
-186 -488 0
-186 -489 0
-181 187 188 0
182 187 -189 0
-181 182 187 0
187 188 -189 0
181 -187 189 0
-182 -187 -188 0
188 490 491 492 0
-188 -490 0
-188 -492 0
-188 -491 0
189 -190 313 0
-189 -313 0
-189 190 0
-188 190 488 489 0
188 -190 0
-190 -489 0
-190 -488 0
-67 191 -192 0
67 -191 0
-191 192 0
63 192 -193 0
62 192 -193 -545 0
-192 193 0
-62 -63 -192 0
-63 -192 545 0
193 -194 -574 0
-193 574 0
-193 194 0
98 112 194 0
98 111 194 0
-98 -194 0
-111 -112 -194 0
195 -196 -212 763 0
195 -196 -207 -212 0
-195 212 0
-195 196 0
-195 207 -763 0
196 -197 -204 0
-196 197 0
-196 204 0
197 -198 201 0
197 -198 199 -995 0
-197 198 0
-197 -201 995 0
-197 -199 -201 0
44 58 198 0
44 57 198 0
-44 -198 0
-57 -58 -198 0
199 -200 0
199 -1004 1010 0
199 1004 1011 0
-199 200 -1004 -1010 0
-199 200 1004 -1011 0
200 995 0
200 -996 -1002 0
200 996 -1003 0
-200 -995 996 1003 0
-200 -995 -996 1002 0
-200 201 -202 0
201 -202 -203 0
-201 202 0
200 -201 203 0
202 995 0
202 -996 1002 0
202 996 1003 0
-202 -995 996 -1003 0
-202 -995 -996 -1002 0
-200 203 0
203 1004 -1011 0
203 -1004 -1010 0
200 -203 -1004 1010 0
200 -203 1004 1011 0
-7 204 205 0
7 -204 0
-204 -205 0
-13 205 206 0
13 -205 0
-205 -206 0
9 11 206 0
9 10 206 0
9 15 206 0
-9 -206 0
-10 -11 -15 -206 0
50 207 208 0
-50 -207 0
-207 -208 0
208 209 -882 0
-24 208 -211 882 0
-208 -209 -882 0
24 -208 882 0
-208 211 882 0
-24 209 -210 0
24 -209 0
-209 210 0
210 -1140 -1142 0
38 210 1140 0
210 -1140 -1146 0
-38 -210 1140 0
-210 -1140 1142 1146 0
211 -1140 1142 1148 0
-211 1140 0
-211 -1148 0
-211 -1142 0
208 212 214 0
212 -213 -217 0
208 212 -217 0
-208 -212 213 0
-212 -214 217 0
-208 -212 217 0
213 938 939 0
-213 -938 0
-213 -939 0
214 -215 763 0
-214 -763 0
-214 215 0
215 -216 938 939 0
-215 216 0
-215 -939 0
-215 -938 0
216 940 941 942 0
-216 -940 0
-216 -942 0
-216 -941 0
-209 217 940 941 942 0
209 -217 0
-217 -942 0
-217 -940 0
-217 -941 0
218 219 222 224 -226 0
218 -219 -222 224 -226 0
-218 -224 0
-218 219 -222 0
-218 226 0
-218 -219 222 0
-80 -192 219 220 -221 0
-219 221 0
80 -219 0
192 -219 0
-219 -220 0
-103 220 -313 0
-220 313 0
103 -220 0
-67 221 -719 721 0
-221 719 0
-221 -721 0
67 -221 0
-24 -197 -204 222 -223 0
-222 223 0
24 -222 0
204 -222 0
197 -222 0
223 763 -1140 1142 0
50 223 -1140 1142 0
-223 1140 0
-223 -1142 0
-50 -223 -763 0
-11 -13 -15 224 225 0
-224 -225 0
15 -224 0
13 -224 0
11 -224 0
9 10 225 0
-9 -225 0
-10 -225 0
202 226 -227 0
199 226 -227 0
203 226 -227 0
-226 227 0
-199 -202 -203 -226 0
25 32 227 -228 0
-31 32 227 -228 0
-227 228 0
-32 -227 0
-25 31 -227 0
38 -198 228 229 -230 0
198 -228 0
-228 -229 0
-38 -228 0
-228 230 0
-50 229 -763 0
-229 763 0
50 -229 0
-7 230 231 -767 0
-7 230 231 768 0
7 -230 0
-230 -231 0
-230 767 -768 0
231 765 766 0
-231 -765 0
-231 -766 0
232 233 -239 0
232 -233 239 0
-232 -233 -239 0
-232 233 239 0
-191 233 234 313 0
-191 233 234 -238 0
191 -233 0
-233 -234 0
-233 238 -313 0
190 234 237 0
234 235 237 0
-190 234 235 313 0
-190 -234 -235 0
190 -234 -237 0
-234 -237 -313 0
-80 235 -719 0
76 -80 235 236 0
80 -235 0
-235 -236 719 0
-76 -235 719 0
236 324 756 0
-236 -324 0
-236 -756 0
237 432 -757 0
-235 237 -432 0
235 -237 -432 0
-237 432 757 0
103 -237 238 0
-103 -238 0
237 -238 0
-196 239 244 763 0
-196 239 -240 244 0
196 -239 0
-239 -244 0
-239 240 -763 0
50 240 -241 0
-50 -240 0
-240 241 0
241 882 -1178 0
241 -242 -882 0
-241 242 -882 0
-241 882 1178 0
-24 242 -1140 0
-24 38 242 243 0
24 -242 0
-242 -243 1140 0
-38 -242 1140 0
243 774 1177 0
-243 -774 0
-243 -1177 0
215 241 244 0
241 242 244 0
-215 242 244 763 0
-215 -242 -244 0
215 -241 -244 0
-241 -244 -763 0
245 246 255 -264 -274 0
245 -246 -255 -264 -274 0
245 246 255 264 274 0
245 -246 -255 264 274 0
-245 246 -255 0
-245 -246 255 0
-245 264 -274 0
-245 -264 274 0
-60 246 -247 0
-60 246 -254 0
-60 246 -253 0
60 -246 0
-246 247 253 254 0
247 250 -251 0
-102 247 248 -251 0
-247 251 0
-247 -248 -250 0
102 -247 -250 0
-97 248 751 0
97 248 249 0
-97 -248 -751 0
97 -248 -249 0
-75 249 -750 0
-249 750 0
75 -249 0
104 250 -313 0
250 -313 752 0
-250 313 0
-104 -250 -752 0
-173 251 252 0
173 -251 0
-251 -252 0
-248 252 313 -488 0
249 252 313 488 0
-252 -313 0
248 -252 -488 0
-249 -252 488 0
-69 -106 253 -754 0
-253 754 0
69 -253 0
106 -253 0
-71 -178 254 -753 0
-254 753 0
71 -254 0
178 -254 0
-6 255 262 -1024 0
-6 255 -256 -1024 0
-255 1024 0
6 -255 0
-255 256 -262 0
256 259 -260 0
-48 256 257 -260 0
-256 260 0
-256 -257 -259 0
48 -256 -259 0
-43 257 1172 0
43 257 258 0
-43 -257 -1172 0
43 -257 -258 0
-23 258 -1171 0
-258 1171 0
23 -258 0
49 259 -763 0
259 -763 1173 0
-259 763 0
-49 -259 -1173 0
-160 260 261 0
160 -260 0
-260 -261 0
-257 261 763 -938 0
258 261 763 938 0
-261 -763 0
257 -261 -938 0
-258 -261 938 0
17 262 263 0
52 262 263 0
262 263 1175 0
-262 -263 0
-17 -52 -262 -1175 0
-19 -165 263 -1174 0
-263 1174 0
19 -263 0
165 -263 0
-60 174 264 265 0
-60 264 265 273 0
60 -264 0
-264 -265 0
-174 -264 -273 0
265 267 509 0
71 265 266 267 0
-265 -267 0
-265 -266 -509 0
-71 -265 -509 0
-69 266 516 -749 0
69 -266 0
-266 749 0
-266 -516 0
98 267 268 272 0
98 267 268 -271 0
-98 -267 0
-267 -268 0
-267 271 -272 0
268 -270 313 -488 0
268 269 313 488 0
-268 -313 0
-268 270 -488 0
-268 -269 488 0
-75 269 -317 0
-269 317 0
75 -269 0
-97 270 746 0
97 269 270 0
-97 -270 -746 0
97 -269 -270 0
-102 270 271 0
102 -271 0
-270 -271 0
104 272 -313 0
272 -313 747 0
-272 313 0
-104 -272 -747 0
-175 266 273 0
266 273 748 0
-266 -273 0
175 -273 -748 0
-6 205 274 275 283 0
-274 -283 0
-274 -275 0
6 -274 0
-205 -274 0
275 277 959 0
19 275 276 277 0
-275 -277 0
-275 -276 -959 0
-19 -275 -959 0
-17 276 966 -1170 0
17 -276 0
-276 1170 0
-276 -966 0
44 277 278 282 0
44 277 278 -281 0
-44 -277 0
-277 -278 0
-277 281 -282 0
278 -280 763 -938 0
278 279 763 938 0
-278 -763 0
-278 280 -938 0
-278 -279 938 0
-23 279 -767 0
-279 767 0
23 -279 0
-43 280 1167 0
43 279 280 0
-43 -280 -1167 0
43 -279 -280 0
-48 280 281 0
48 -281 0
-280 -281 0
49 282 -763 0
282 -763 1168 0
-282 763 0
-49 -282 -1168 0
-161 -162 276 283 0
-161 276 283 1169 0
161 -283 0
-276 -283 0
162 -283 -1169 0
123 284 285 295 0
-113 284 -285 -295 0
-113 284 285 295 0
123 284 -285 -295 0
-284 285 -295 0
-284 -285 295 0
113 -123 -284 0
-5 285 -286 0
-5 285 294 0
5 -285 0
-285 286 -294 0
17 -52 286 -287 0
-17 -52 286 -1152 0
52 -286 0
17 -286 287 0
-17 -286 1152 0
-19 287 -1151 0
19 287 -288 0
-19 -287 1151 0
19 -287 288 0
44 288 289 293 0
44 288 289 -292 0
-44 -288 0
-288 -289 0
-288 292 -293 0
289 290 -763 1150 0
49 289 290 -763 0
-289 763 0
-289 -290 0
-49 -289 -1150 0
-48 290 291 0
48 -290 0
-290 -291 0
23 43 291 0
-43 291 1149 0
43 291 768 0
-43 -291 -1149 0
-23 43 -291 -768 0
-23 43 292 -768 0
-23 292 -768 938 0
23 -292 0
-292 768 0
-43 -292 -938 0
293 763 1149 0
293 763 938 0
43 293 763 0
-293 -763 0
-43 -293 -938 -1149 0
-54 288 294 0
287 294 -959 0
-54 294 -959 0
287 288 294 0
54 -287 -294 0
-288 -294 959 0
-60 295 -296 0
-60 295 304 0
60 -295 0
-295 296 -304 0
69 -106 296 -297 0
-69 -106 296 -731 0
106 -296 0
69 -296 297 0
-69 -296 731 0
-71 297 -730 0
71 297 -298 0
-71 -297 730 0
71 -297 298 0
98 298 299 303 0
98 298 299 -302 0
-98 -298 0
-298 -299 0
-298 302 -303 0
299 300 -313 729 0
104 299 300 -313 0
-299 313 0
-299 -300 0
-104 -299 -729 0
-102 300 301 0
102 -300 0
-300 -301 0
75 97 301 0
-97 301 728 0
97 301 318 0
-97 -301 -728 0
-75 97 -301 -318 0
-75 97 302 -318 0
-75 302 -318 488 0
75 -302 0
-302 318 0
-97 -302 -488 0
303 313 728 0
303 313 488 0
97 303 313 0
-303 -313 0
-97 -303 -488 -728 0
-108 298 304 0
297 304 -509 0
-108 304 -509 0
297 298 304 0
108 -297 -304 0
-298 -304 509 0
-62 -64 -65 305 0
62 -305 0
64 -305 0
65 -305 0
-88 306 -307 0
-92 306 -307 0
-95 306 -307 0
-306 307 0
88 92 95 -306 0
76 81 -194 307 -308 0
-76 -307 0
-307 308 0
194 -307 0
-81 -307 0
220 308 -309 -310 -574 0
-308 310 0
-308 574 0
-308 309 0
-220 -308 0
309 -603 -690 0
-309 603 0
-309 690 0
310 -311 312 -317 0
310 -311 312 318 0
-310 311 0
-310 -312 0
-310 317 -318 0
311 -632 -661 0
-311 632 0
-311 661 0
312 315 316 0
-312 -315 0
-312 -316 0
1 2 0
-1 -2 0
1184 0

